proyfinal/src/viki/013/experimentInOfficeAgust.take6.output/03296f58-c9c7-4414-909e-9cde9613a2f5.als.out
Reading from standard input... Use '--help' for help.
============================[ Problem Statistics ]=============================
|                                                                             |
|  Number of variables:         87638                                         |
|  Number of clauses:          161767                                         |
|  Parse time:                   0.04 s                                       |
|                                                                             |
============================[ Search Statistics ]==============================
| Conflicts |          ORIGINAL         |          LEARNT          | Progress |
|           |    Vars  Clauses Literals |    Limit  Clauses Lit/Cl |          |
===============================================================================
|       100 |   62154   104515   260682 |    38322      100     28 | 29.079 % |
|       250 |   62154   104515   260682 |    42154      250     77 | 29.079 % |
|       475 |   62154   104515   260682 |    46369      475     62 | 29.079 % |
|       812 |   62154   104515   260682 |    51006      812     63 | 29.079 % |
|      1318 |   62154   104515   260682 |    56107     1318     62 | 29.079 % |
|      2077 |   62151   104491   260622 |    61718     2076     75 | 29.082 % |
|      3216 |   62151   104491   260622 |    67890     3215    126 | 29.082 % |
|      4924 |   52888    76674   192470 |    74679     4787    109 | 39.652 % |
|      7486 |   52728    75868   190520 |    82146     7327     87 | 39.834 % |
|     11330 |   52397    74404   187079 |    90361    10569     71 | 40.212 % |
|     17096 |   52076    73306   184499 |    99397    14073     61 | 40.578 % |
===============================================================================
restarts              : 63
conflicts             : 17683          (8752 /sec)
decisions             : 51115          (0.00 % random) (25300 /sec)
propagations          : 21923303       (10851203 /sec)
conflict literals     : 1043448        (42.68 % deleted)
Memory used           : 31.41 MB
CPU time              : 2.02036 s

UNSATISFIABLE
